c Random generated cnf formula, satisfiable: false
p cnf 10 50
-10 9 -8 0
-10 4 -9 0
9 3 -6 0
10 -8 -7 0
2 -8 -9 0
-3 9 -5 0
-9 -10 2 0
9 -10 -5 0
-5 6 -1 0
-6 -3 -1 0
-1 -9 10 0
-8 -3 1 0
3 -6 -7 0
1 -3 2 0
-7 -1 4 0
5 -7 3 0
5 -6 7 0
7 9 2 0
1 -4 -9 0
2 -9 8 0
-6 -8 3 0
7 6 10 0
1 5 7 0
-5 9 -3 0
1 -6 -8 0
2 5 -6 0
7 -2 8 0
6 -2 -3 0
-7 2 4 0
-4 -9 7 0
1 -2 7 0
-5 -7 6 0
-2 -5 -8 0
-4 -3 2 0
8 3 1 0
-8 5 -9 0
9 5 -1 0
5 -6 4 0
6 -5 8 0
2 9 1 0
-1 5 -9 0
-8 -7 10 0
7 8 -4 0
-1 6 3 0
4 7 10 0
-7 6 -4 0
1 2 -9 0
-10 -7 3 0
-3 -6 -2 0
9 2 -7 0
